 vasp.5.4.4.18Apr17-6-g9f103f2a35 (build Aug 19 2020 10:39:31) complex

 executed on             LinuxIFC date 2021.11.24  10:09:17

 INCAR:
 POTCAR:    PAW_PBE Mo 08Apr2002
 POTCAR:    PAW_PBE S 06Sep2000

 POTCAR:    PAW_PBE Mo 08Apr2002
   VRHFIN =Mo: 4p5s4d

   TITEL  = PAW_PBE Mo 08Apr2002
   POMASS =   95.940; ZVAL   =    6.000    mass and valenz
   ENMAX  =  224.584; ENMIN  =  168.438 eV

 POTCAR:    PAW_PBE S 06Sep2000
   VRHFIN =S : s2p4

   TITEL  = PAW_PBE S 06Sep2000
   POMASS =   32.066; ZVAL   =    6.000    mass and valenz
   ENMAX  =  258.689; ENMIN  =  194.016 eV

  PAW_PBE Mo 08Apr2002                  :
  PAW_PBE S 06Sep2000                   :

 POSCAR: PdTe2
  positions in direct lattice
 exchange correlation table for  LEXCH =        8
   RHO(1)=    0.500       N(1)  =     2000
   RHO(2)=  100.500       N(2)  =     4000

 ion  position               nearest neighbor table
   1  0.000  0.000  0.500-   2 2.43   3 2.43   2 2.43   3 2.43   2 2.43   3 2.43
   2  0.333  0.333  0.606-   1 2.43   1 2.43   1 2.43
   3  0.333  0.333  0.394-   1 2.43   1 2.43   1 2.43

  LATTYP: Found a hexagonal cell.
 ALAT       =     3.1716343032
 C/A-ratio  =     4.7294229302

  Lattice vectors:

 A1 = (   1.5858171516,  -2.7467158781,   0.0000000000)
 A2 = (  -3.1716343032,   0.0000000000,   0.0000000000)
 A3 = (   0.0000000000,   0.0000000000, -15.0000000000)

Analysis of symmetry for initial positions (statically):
 Subroutine PRICEL returns:
 Original cell was already a primitive cell.

 Routine SETGRP: Setting up the symmetry group for a
 hexagonal supercell.

 Subroutine GETGRP returns: Found 12 space group operations
 (whereof 12 operations were pure point group operations)
 out of a pool of 24 trial point group operations.

The static configuration has the point symmetry D_3h.

Analysis of symmetry for dynamics (positions and initial velocities):
 Subroutine PRICEL returns:
 Original cell was already a primitive cell.

[...]

The dynamic configuration has the point symmetry D_3h.

Analysis of constrained symmetry for selective dynamics:
 Subroutine PRICEL returns:
 Original cell was already a primitive cell.

[...]

The constrained configuration has the point symmetry D_3h.

Analysis of structural, dynamic, and magnetic symmetry:
 Subroutine PRICEL returns:
 Original cell was already a primitive cell.

 Routine SETGRP: Setting up the symmetry group for a
 hexagonal supercell.

 Subroutine GETGRP returns: Found 12 space group operations
 (whereof 12 operations were pure point group operations)
 out of a pool of 24 trial point group operations.

The (compounded) configuration has the point symmetry D_3h.

 Subroutine INISYM returns: Found 12 space group operations
 (whereof 12 operations are pure point group operations),
 and found     1 'primitive' translations

 KPOINTS: k-points along high symmetry lines
  interpolating k-points between supplied coordinates
  k-points in reciprocal lattice
Space group operators:
 irot       det(A)        alpha          n_x          n_y          n_z        tau_x        tau_y        tau_z
    1     1.000000     0.000000     1.000000     0.000000     0.000000     0.000000     0.000000     0.000000
    2    -1.000000    60.000000     0.000000    -0.000000     1.000000     0.000000     0.000000     0.000000
    3     1.000000   120.000000     0.000000    -0.000000     1.000000     0.000000     0.000000     0.000000
    4    -1.000000   180.000000     0.000000    -0.000000     1.000000     0.000000     0.000000     0.000000
    5     1.000000   120.000000     0.000000     0.000000    -1.000000     0.000000     0.000000     0.000000
    6    -1.000000    60.000000     0.000000     0.000000    -1.000000     0.000000     0.000000     0.000000
    7    -1.000000   180.000000     0.500000    -0.866025     0.000000     0.000000     0.000000     0.000000
    8     1.000000   180.000000     0.866025    -0.500000     0.000000     0.000000     0.000000     0.000000
    9    -1.000000   180.000000     1.000000     0.000000     0.000000     0.000000     0.000000     0.000000
   10     1.000000   180.000000     0.866025     0.500000     0.000000     0.000000     0.000000     0.000000
   11    -1.000000   180.000000    -0.500000    -0.866025     0.000000     0.000000     0.000000     0.000000
   12     1.000000   180.000000     0.000000     1.000000     0.000000     0.000000     0.000000     0.000000

 SYSTEM =  PdTe2 Hyun-Jung Kim.
 POSCAR =  PdTe2

 Startparameter for this run:
   NWRITE =      2    write-flag & timer
   PREC   = n         normal or accurate (medium, high low for compatibility)
   ISTART =      0    job   : 0-new  1-cont  2-samecut
   ICHARG =     11    charge: 1-file 2-atom 10-const
   ISPIN  =      1    spin polarized calculation?
   LNONCOLLINEAR =      T non collinear calculations
   LSORBIT =      T    spin-orbit coupling
   INIWAV =      1    electr: 0-lowe 1-rand  2-diag
   LASPH  =      F    aspherical Exc in radial PAW
   METAGGA=      F    non-selfconsistent MetaGGA calc.

 Electronic Relaxation 1
   ENCUT  =  400.0 eV  29.40 Ry    5.42 a.u.   5.17  5.17 24.46*2*pi/ulx,y,z
   ENINI  =  400.0     initial cutoff
   ENAUG  =  345.3 eV  augmentation charge cutoff
   NELM   =    200;   NELMIN=  2; NELMDL=  0     # of ELM steps
   EDIFF  = 0.1E-05   stopping-criterion for ELM
   LREAL  =      F    real-space projection
   NLSPLINE    = F    spline interpolate recip. space projectors
   LCOMPAT=      F    compatible to vasp.4.4
   GGA_COMPAT  = F    GGA compatible to vasp.4.4-vasp.4.6
   LMAXPAW     = -100 max onsite density
   LMAXMIX     =    2 max onsite mixed and CHGCAR
   VOSKOWN=      0    Vosko Wilk Nusair interpolation
   ROPT   =    0.00000   0.00000
 Ionic relaxation
   EDIFFG = 0.1E-04   stopping-criterion for IOM
   NSW    =      0    number of steps for IOM
   NBLOCK =      1;   KBLOCK =      1    inner block; outer block
   IBRION =     -1    ionic relax: 0-MD 1-quasi-New 2-CG
   NFREE  =      0    steps in history (QN), initial steepest desc. (CG)
   ISIF   =      2    stress and relaxation
   ICSO   =      0    constrained structural opt. 1: x, 2: y, 3: z, 4: xy, 5: xyz
   IWAVPR =     10    prediction:  0-non 1-charg 2-wave 3-comb
   ISYM   =      2    0-nonsym 1-usesym 2-fastsym
   LCORR  =      T    Harris-Foulkes like correction to forces

   POTIM  = 0.5000    time-step for ionic-motion
   TEIN   =    0.0    initial temperature
   TEBEG  =    0.0;   TEEND  =   0.0 temperature during run
   SMASS  =  -3.00    Nose mass-parameter (am)
   estimated Nose-frequenzy (Omega)   =  0.10E-29 period in steps =****** mass=  -0.230E-27a.u.
   SCALEE = 1.0000    scale energy and forces
   NPACO  =    256;   APACO  = 16.0  distance and # of slots for P.C.
   PSTRESS=    0.0 pullay stress

  Mass of Ions in am
   POMASS =  95.94 32.07
  Ionic Valenz
   ZVAL   =   6.00  6.00
  Atomic Wigner-Seitz radii
  virtual crystal weights
   VCA    =   1.00  1.00
   NELECT =      18.0000    total number of electrons
   NUPDOWN=      -1.0000    fix difference up-down

 DOS related values:
   EMIN   =  10.00;   EMAX   =-10.00  energy-range for DOS
   EFERMI =   0.00
   ISMEAR =     0;   SIGMA  =   0.02  broadening in eV -4-tet -1-fermi 0-gaus

 Electronic relaxation 2 (details)
   IALGO  =     38    algorithm
   LDIAG  =      T    sub-space diagonalisation (order eigenvalues)
   LSUBROT=      F    optimize rotation matrix (better conditioning)
   TURBO    =      0    0=normal 1=particle mesh
   IRESTART =      0    0=no restart 2=restart with 2 vectors
   NREBOOT  =      0    no. of reboots
   NMIN     =      0    reboot dimension
   EREF     =   0.00    reference energy to select bands
   IMIX   =      4    mixing-type and parameters
     AMIX     =   0.40;   BMIX     =  1.00
     AMIX_MAG =   1.60;   BMIX_MAG =  1.00
     AMIN     =   0.10
     WC   =   100.;   INIMIX=   1;  MIXPRE=   1;  MAXMIX= -45

 Intra band minimization:
   WEIMIN = 0.0000     energy-eigenvalue tresh-hold
   EBREAK =  0.78E-08  absolut break condition
   DEPER  =   0.30     relativ break condition

   TIME   =   0.40     timestep for ELM

  volume/ion in A,a.u.               =      43.56       293.94
  Fermi-wavevector in a.u.,A,eV,Ry     =   0.845479  1.597724  9.725923  0.714835
  Thomas-Fermi vector in A             =   1.960674

 Write flags
   LWAVE        =      T    write WAVECAR
   LDOWNSAMPLE  =      F    k-point downsampling of WAVECAR
   LCHARG       =      F    write CHGCAR
   LVTOT        =      F    write LOCPOT, total local potential
   LVHAR        =      F    write LOCPOT, Hartree potential only
   LELF         =      F    write electronic localiz. function (ELF)
   LORBIT       =     11    0 simple, 1 ext, 2 COOP (PROOUT), +10 PAW based schemes

 Dipole corrections
   LMONO  =      F    monopole corrections only (constant potential shift)
   LDIPOL =      F    correct potential (dipole corrections)
   IDIPOL =      0    1-x, 2-y, 3-z, 4-all directions
   EPSILON=  1.0000000 bulk dielectric constant

 Exchange correlation treatment:
   GGA     =    --    GGA type
   VOSKOWN=      0    Vosko Wilk Nusair interpolation
   LHFCALC =     F    Hartree Fock is set to
   LHFONE  =     F    Hartree Fock one center treatment
   AEXX    =    0.0000 exact exchange contribution

 Linear response parameters
   LEPSILON=     F    determine dielectric tensor
   LRPA    =     F    only Hartree local field effects (RPA)
   LNABLA  =     F    use nabla operator in PAW spheres
   LVEL    =     F    velocity operator in full k-point grid
   LINTERFAST=   F  fast interpolation
   KINTER  =     0    interpolate to denser k-point grid
   CSHIFT  =0.1000    complex shift for real part using Kramers Kronig
   OMEGAMAX=  -1.0    maximum frequency
   DEG_THRESHOLD= 0.2000000E-02 threshold for treating states as degnerate
   RTIME   =   -0.100 relaxation time in fs
  (WPLASMAI=    0.000 imaginary part of plasma frequency in eV, 0.658/RTIME)
   DFIELD  = 0.0000000 0.0000000 0.0000000 field for delta impulse in time

 Orbital magnetization related:
   ORBITALMAG=     F  switch on orbital magnetization
   LCHIMAG   =     F  perturbation theory with respect to B field
   DQ        =  0.001000  dq finite difference perturbation B field
   LLRAUG    =     F  two centre corrections for induced B field

 Static calculation
 charge density and potential remain constant during run
 non collinear spin polarized calculation
 Variant of blocked Davidson
 Davidson routine will perform the subspace rotation
 perform sub-space diagonalisation
    after iterative eigenvector-optimisation
 no mixing
 using additional bands           23
 reciprocal scheme for non local part
 use partial core corrections
 calculate Harris-corrections to forces
   (improved forces if not selfconsistent)
 use gradient corrections
 WARNING: stress and forces are not correct
  (second derivative of E(xc) not defined)
 use of overlap-Matrix (Vanderbilt PP)
 Gauss-broadening in eV      SIGMA  =   0.02

  energy-cutoff  :      400.00
  volume of cell :      130.67
      direct lattice vectors                 reciprocal lattice vectors
     3.171634303  0.000000000  0.000000000     0.315294862 -0.182035573  0.000000000
[...]
  -0.10144826 -0.20289865  0.00000000       0.021
  -0.11594087 -0.23188417  0.00000000       0.021
  -0.13043348 -0.26086970  0.00000000       0.021
  -0.14492609 -0.28985522  0.00000000       0.021
  -0.15941870 -0.31884074  0.00000000       0.021
  -0.17391130 -0.34782626  0.00000000       0.021
  -0.18840391 -0.37681178  0.00000000       0.021
  -0.20289652 -0.40579730  0.00000000       0.021
  -0.21738913 -0.43478283  0.00000000       0.021
  -0.23188174 -0.46376835  0.00000000       0.021
  -0.24637435 -0.49275387  0.00000000       0.021
  -0.26086696 -0.52173939  0.00000000       0.021
  -0.27535957 -0.55072491  0.00000000       0.021
  -0.28985217 -0.57971043  0.00000000       0.021
  -0.30434478 -0.60869596  0.00000000       0.021
  -0.31883739 -0.63768148  0.00000000       0.021
  -0.33333000 -0.66666700  0.00000000       0.021

 position of ions in fractional coordinates (direct lattice)
   0.00000000  0.00000000  0.50000000
   0.33333333  0.33333333  0.60645737
   0.33333333  0.33333333  0.39354263

 position of ions in cartesian coordinates  (Angst):
   0.00000000  0.00000000  7.50000000
   1.58581715  0.91557196  9.09686056
   1.58581715  0.91557196  5.90313944

 Euler angles ALPHA=     0.0000000  BETA=     0.0000000

 transformation matrix from SAXIS to cartesian coordinates
     1.0000000 m_x     0.0000000 m_y     0.0000000 m_z
     0.0000000 m_x     1.0000000 m_y     0.0000000 m_z
     0.0000000 m_x     0.0000000 m_y     1.0000000 m_z

 transformation matrix from cartesian coordinates to SAXIS
     1.0000000 m_x     0.0000000 m_y     0.0000000 m_z
     0.0000000 m_x     1.0000000 m_y     0.0000000 m_z
     0.0000000 m_x     0.0000000 m_y     1.0000000 m_z

 k-point  1 :   0.3333 0.6667 0.0000  plane waves:    4734
 k-point  2 :   0.3188 0.6377 0.0000  plane waves:    4706
 k-point  3 :   0.3043 0.6087 0.0000  plane waves:    4714
 k-point  4 :   0.2899 0.5797 0.0000  plane waves:    4738
 k-point  5 :   0.2754 0.5507 0.0000  plane waves:    4722
 k-point  6 :   0.2609 0.5217 0.0000  plane waves:    4722
 k-point  7 :   0.2464 0.4928 0.0000  plane waves:    4746
 k-point  8 :   0.2319 0.4638 0.0000  plane waves:    4746
 k-point  9 :   0.2174 0.4348 0.0000  plane waves:    4770
 k-point 10 :   0.2029 0.4058 0.0000  plane waves:    4746
 k-point 11 :   0.1884 0.3768 0.0000  plane waves:    4742
 k-point 12 :   0.1739 0.3478 0.0000  plane waves:    4726
 k-point 13 :   0.1594 0.3188 0.0000  plane waves:    4730
 k-point 14 :   0.1449 0.2899 0.0000  plane waves:    4746
 k-point 15 :   0.1304 0.2609 0.0000  plane waves:    4738
 k-point 16 :   0.1159 0.2319 0.0000  plane waves:    4714
 k-point 17 :   0.1014 0.2029 0.0000  plane waves:    4726
 k-point 18 :   0.0870 0.1739 0.0000  plane waves:    4702
 k-point 19 :   0.0725 0.1449 0.0000  plane waves:    4698
 k-point 20 :   0.0580 0.1159 0.0000  plane waves:    4682
 k-point 21 :   0.0435 0.0870 0.0000  plane waves:    4702
 k-point 22 :   0.0290 0.0580 0.0000  plane waves:    4706
 k-point 23 :   0.0145 0.0290 0.0000  plane waves:    4706
 k-point 24 :   0.0000 0.0000 0.0000  plane waves:    4706
 k-point 25 :   0.0000 0.0000 0.0000  plane waves:    4706
 k-point 26 :  -0.0145-0.0290 0.0000  plane waves:    4706
 k-point 27 :  -0.0290-0.0580 0.0000  plane waves:    4706
 k-point 28 :  -0.0435-0.0870 0.0000  plane waves:    4702
 k-point 29 :  -0.0580-0.1159 0.0000  plane waves:    4682
 k-point 30 :  -0.0725-0.1449 0.0000  plane waves:    4698
 k-point 31 :  -0.0870-0.1739 0.0000  plane waves:    4702
 k-point 32 :  -0.1014-0.2029 0.0000  plane waves:    4726
 k-point 33 :  -0.1159-0.2319 0.0000  plane waves:    4714
 k-point 34 :  -0.1304-0.2609 0.0000  plane waves:    4738
 k-point 35 :  -0.1449-0.2899 0.0000  plane waves:    4746
 k-point 36 :  -0.1594-0.3188 0.0000  plane waves:    4730
 k-point 37 :  -0.1739-0.3478 0.0000  plane waves:    4726
 k-point 38 :  -0.1884-0.3768 0.0000  plane waves:    4742
 k-point 39 :  -0.2029-0.4058 0.0000  plane waves:    4746
 k-point 40 :  -0.2174-0.4348 0.0000  plane waves:    4770
 k-point 41 :  -0.2319-0.4638 0.0000  plane waves:    4746
 k-point 42 :  -0.2464-0.4928 0.0000  plane waves:    4746
 k-point 43 :  -0.2609-0.5217 0.0000  plane waves:    4722
 k-point 44 :  -0.2754-0.5507 0.0000  plane waves:    4722
 k-point 45 :  -0.2899-0.5797 0.0000  plane waves:    4738
 k-point 46 :  -0.3043-0.6087 0.0000  plane waves:    4714
 k-point 47 :  -0.3188-0.6377 0.0000  plane waves:    4706
 k-point 48 :  -0.3333-0.6667 0.0000  plane waves:    4734

 maximum and minimum number of plane-waves per node :      4770     4682

 maximum number of plane-waves:      4770
 maximum index in each direction:
   IXMAX=    5   IYMAX=    5   IZMAX=   24
   IXMIN=   -5   IYMIN=   -5   IZMIN=  -24

 serial   3D FFT for wavefunctions
 parallel 3D FFT for charge:
    minimum data exchange during FFTs selected (reduces bandwidth)

 initial charge density was supplied:
 number of electron      18.0000011 magnetization       0.0000000      0.0000000     -0.0000000
 keeping initial charge density in first step

 Maximum index for augmentation-charges          519 (set IRDMAX)

 First call to EWALD:  gamma=   0.349
 Maximum number of real-space cells 5x 5x 1
 Maximum number of reciprocal cells 2x 2x 7

--------------------------------------- Iteration      1(   1)  ---------------------------------------

 eigenvalue-minimisations  :  3072
 total energy-change (2. order) : 0.7636580E+02  (-0.6311003E+03)
 number of electron      18.0000011 magnetization       0.0000000      0.0000000     -0.0000000
 augmentation part       18.0000011 magnetization       0.0000000      0.0000000     -0.0000000

 Free energy of the ion-electron system (eV)
  alpha Z        PSCENC =        22.68957348
  Ewald energy   TEWEN  =      1143.31362263
  -Hartree energ DENC   =     -1885.54596755
  -exchange      EXHF   =         0.00000000
  -V(xc)+E(xc)   XCENC  =       -35.25819018
  PAW double counting   =      1564.16423160    -1488.31076291
  entropy T*S    EENTRO =        -0.00048226
  eigenvalues    EBANDS =       -15.83817065
  atomic energy  EATOM  =       771.15194512
  Solvation  Ediel_sol  =         0.00000000
  free energy    TOTEN  =        76.36579928 eV

  energy without entropy =       76.36628154  energy(sigma->0) =       76.36604041

[...]

 eigenvalue-minimisations  :  5440
 total energy-change (2. order) :-0.9461326E+02  (-0.9301668E+02)
 number of electron      18.0000011 magnetization       0.0000000      0.0000000     -0.0000000
 augmentation part       18.0000011 magnetization       0.0000000      0.0000000     -0.0000000

[...]

 total charge

# of ion       s       p       d       tot
    1        0.449   0.507   4.759   5.715
    2        1.337   2.226   0.000   3.563
    3        1.337   2.226   0.000   3.563
tot          3.123   4.959   4.759  12.841

 magnetization (x)

[...]

 magnetization (y)

[...]

 magnetization (z)

[...]

--------------------------------------- Iteration      1(   6)  ---------------------------------------

 eigenvalue-minimisations  :  6048
 total energy-change (2. order) :-0.7941651E-07  (-0.7941299E-07)
 number of electron      18.0000011 magnetization       0.0000000      0.0000000     -0.0000000
 augmentation part       18.0000011 magnetization       0.0000000      0.0000000     -0.0000000

 Free energy of the ion-electron system (eV)
  alpha Z        PSCENC =        22.68957348
  Ewald energy   TEWEN  =      1143.31362263
  -Hartree energ DENC   =     -1885.54596755
  -exchange      EXHF   =         0.00000000
  -V(xc)+E(xc)   XCENC  =       -35.25819018
  PAW double counting   =      1564.16423160    -1488.31076291
  entropy T*S    EENTRO =        -0.00000000
  eigenvalues    EBANDS =      -113.02319654
  atomic energy  EATOM  =       771.15194512
  Solvation  Ediel_sol  =         0.00000000
  free energy    TOTEN  =       -20.81874435 eV

  energy without entropy =      -20.81874435  energy(sigma->0) =      -20.81874435

 average (electrostatic) potential at core
  the test charge radii are     1.2296  0.9698
  (the norm of the test charge is              1.0000)
       1 -44.8153       2 -92.6533       3 -92.6533

 E-fermi :  -1.1852     XC(G=0):  -5.0950     alpha+bet : -4.8360

 k-point     1 :       0.3333    0.6667    0.0000
  band No.  band energies     occupation
      1     -13.2804      1.00000
      2     -13.2488      1.00000
      3     -13.1719      1.00000
      4     -13.1685      1.00000
      5      -6.6676      1.00000
      6      -6.6605      1.00000
      7      -5.9228      1.00000
      8      -5.8875      1.00000
      9      -5.4023      1.00000
     10      -5.3710      1.00000
     11      -4.8749      1.00000
     12      -4.8676      1.00000
     13      -4.3051      1.00000
     14      -4.2559      1.00000
     15      -3.6138      1.00000
     16      -3.5900      1.00000
     17      -1.4220      1.00000
     18      -1.2749      1.00000
     19       0.3987      0.00000
     20       0.4009      0.00000
     21       1.4997      0.00000
     22       1.5303      0.00000
     23       1.9952      0.00000
     24       2.1382      0.00000
     25       3.3936      0.00000
     26       3.4746      0.00000
     27       5.8451      0.00000
     28       5.9621      0.00000
     29       6.1905      0.00000
     30       6.1934      0.00000
     31       8.2695      0.00000
     32       8.2770      0.00000

[...]

 k-point    48 :      -0.3333   -0.6667    0.0000
  band No.  band energies     occupation
      1     -13.2804      1.00000
      2     -13.2488      1.00000
      3     -13.1719      1.00000
      4     -13.1685      1.00000
      5      -6.6676      1.00000
      6      -6.6605      1.00000
      7      -5.9228      1.00000
      8      -5.8875      1.00000
      9      -5.4023      1.00000
     10      -5.3710      1.00000
     11      -4.8749      1.00000
     12      -4.8676      1.00000
     13      -4.3051      1.00000
     14      -4.2559      1.00000
     15      -3.6138      1.00000
     16      -3.5900      1.00000
     17      -1.4220      1.00000
     18      -1.2749      1.00000
     19       0.3987      0.00000
     20       0.4009      0.00000
     21       1.4997      0.00000
     22       1.5303      0.00000
     23       1.9952      0.00000
     24       2.1382      0.00000
     25       3.3936      0.00000
     26       3.4746      0.00000
     27       5.8451      0.00000
     28       5.9621      0.00000
     29       6.1905      0.00000
     30       6.1934      0.00000
     31       8.2695      0.00000
     32       8.2770      0.00000

 soft charge-density along one line, spin component           1
         0         1         2         3         4         5         6         7         8         9
 total charge-density along one line

[...]

 soft charge-density along one line, spin component           4
         0         1         2         3         4         5         6         7         8         9
 total charge-density along one line

------------------------ aborting loop because EDIFF is reached ----------------------------------------

[...]

  FORCE on cell =-STRESS in cart. coord.  units (eV):
  Direction    XX          YY          ZZ          XY          YZ          ZX
  Alpha Z    22.68957    22.68957    22.68957
  Ewald    1710.32592  1710.32592 -2277.33784    -0.00000     0.00000     0.00000
  Hartree  1867.04830  1867.04830 -1829.43740    -0.00000    -0.00000    -0.00000
  E(xc)     -70.19578   -70.19578   -70.45570     0.00000     0.00000     0.00000
  Local   -3861.42304 -3861.42316  3814.48632     0.00010    -0.00000    -0.00000
  n-local   117.02580   116.15753   123.06749    -0.75179    -0.00000     0.00000
  augment   -23.30111   -23.30098   -24.88763    -0.00012     0.00000    -0.00000
  Kinetic   240.49997   236.71006   240.76524    -3.28201    -0.00000    -0.00000
  Fock        0.00000     0.00000     0.00000     0.00000     0.00000     0.00000
  Total       0.34054     0.34054    -1.10996     0.00000     0.00000    -0.00000
  in kB       4.17533     4.17533   -13.60910     0.00000     0.00000    -0.00000

 VOLUME and BASIS-vectors are now :
  energy-cutoff  :      400.00
  volume of cell :      130.67
      direct lattice vectors                 reciprocal lattice vectors
     3.171634303  0.000000000  0.000000000     0.315294862 -0.182035573  0.000000000
     1.585817152  2.746715878  0.000000000     0.000000000  0.364071147  0.000000000
     0.000000000  0.000000000 15.000000000     0.000000000 -0.000000000  0.066666667

  length of vectors
     3.171634303  3.171634303 15.000000000     0.364071147  0.364071147  0.066666667

 FORCES acting on ions
    electron-ion (+dipol)            ewald-force                    non-local-force                 convergence-correction
   0.996E-07 0.575E-07 -.278E-13   0.241E-11 0.154E-11 0.000E+00   -.954E-17 0.000E+00 0.000E+00   -.349E-04 -.202E-04 0.586E-12
   0.124E-05 0.713E-06 -.493E+03   -.120E-11 -.781E-12 0.485E+03   0.347E-17 0.347E-17 -.257E+01   0.116E-03 0.667E-04 0.972E+01
   0.124E-05 0.714E-06 0.493E+03   -.120E-11 -.759E-12 -.485E+03   0.173E-17 0.347E-17 0.257E+01   0.116E-03 0.667E-04 -.972E+01
   0.257E-05 0.149E-05 -.427E-13   0.105E-13 -.293E-14 0.000E+00   -.434E-17 0.694E-17 0.000E+00   0.196E-03 0.113E-03 0.156E-11

 POSITION                                       TOTAL-FORCE (eV/Angst)
      0.00000      0.00000      7.50000         0.000000      0.000000      0.000000
      1.58582      0.91557      9.09686        -0.000000     -0.000000     -1.164497
      1.58582      0.91557      5.90314        -0.000000     -0.000000      1.164497
    total drift:                                0.000199      0.000115      0.000000

  FREE ENERGIE OF THE ION-ELECTRON SYSTEM (eV)
  free  energy   TOTEN  =       -20.81874435 eV

  energy  without entropy=      -20.81874435  energy(sigma->0) =      -20.81874435

 writing wavefunctions

 Spin-Orbit-Coupling matrix elements

 Ion:    1  E_soc:     -0.0263904
 l=   1
     0.0000000    -0.0018471    -0.0014512
    -0.0018471     0.0000000    -0.0018471
    -0.0014512    -0.0018471     0.0000000
 l=   2
     0.0000000    -0.0005300     0.0000000    -0.0005300    -0.0022851
    -0.0005300     0.0000000    -0.0016367    -0.0003713    -0.0005300
     0.0000000    -0.0016367     0.0000000    -0.0016367     0.0000000
    -0.0005300    -0.0003713    -0.0016367     0.0000000    -0.0005300
    -0.0022851    -0.0005300     0.0000000    -0.0005300     0.0000000
 l=   3
     0.0000000     0.0000000     0.0000000     0.0000000     0.0000000     0.0000000     0.0000000
     0.0000000     0.0000000     0.0000000     0.0000000     0.0000000     0.0000000     0.0000000
     0.0000000     0.0000000     0.0000000     0.0000000     0.0000000     0.0000000     0.0000000
     0.0000000     0.0000000     0.0000000     0.0000000     0.0000000     0.0000000     0.0000000
     0.0000000     0.0000000     0.0000000     0.0000000     0.0000000     0.0000000     0.0000000
     0.0000000     0.0000000     0.0000000     0.0000000     0.0000000     0.0000000     0.0000000
     0.0000000     0.0000000     0.0000000     0.0000000     0.0000000     0.0000000     0.0000000

[...]

 Ion:    3  E_soc:     -0.0022206
 l=   1
     0.0000000    -0.0003482    -0.0004138
    -0.0003482     0.0000000    -0.0003482
    -0.0004138    -0.0003482     0.0000000
 l=   2
     0.0000000     0.0000000     0.0000000     0.0000000     0.0000000
     0.0000000     0.0000000     0.0000000     0.0000000     0.0000000
     0.0000000     0.0000000     0.0000000     0.0000000     0.0000000
     0.0000000     0.0000000     0.0000000     0.0000000     0.0000000
     0.0000000     0.0000000     0.0000000     0.0000000     0.0000000
 l=   3
     0.0000000     0.0000000     0.0000000     0.0000000     0.0000000     0.0000000     0.0000000
     0.0000000     0.0000000     0.0000000     0.0000000     0.0000000     0.0000000     0.0000000
     0.0000000     0.0000000     0.0000000     0.0000000     0.0000000     0.0000000     0.0000000
     0.0000000     0.0000000     0.0000000     0.0000000     0.0000000     0.0000000     0.0000000
     0.0000000     0.0000000     0.0000000     0.0000000     0.0000000     0.0000000     0.0000000
     0.0000000     0.0000000     0.0000000     0.0000000     0.0000000     0.0000000     0.0000000
     0.0000000     0.0000000     0.0000000     0.0000000     0.0000000     0.0000000     0.0000000

 total charge

[...]

 magnetization (x)

[...]

 magnetization (y)

[...]

 magnetization (z)

# of ion       s       p       d       tot
    1        0.000  -0.000  -0.000  -0.000
    2        0.000  -0.000   0.000  -0.000
    3        0.000  -0.000   0.000   0.000
tot          0.000  -0.000  -0.000   0.000