 vasp.5.4.4.18Apr17-6-g9f103f2a35 (build Aug 19 2020 10:39:31) complex

 executed on             LinuxIFC date 2021.11.24  10:05:50

 INCAR:
 POTCAR:    PAW_PBE Mo 08Apr2002
 POTCAR:    PAW_PBE S 06Sep2000

 POTCAR:    PAW_PBE Mo 08Apr2002
   VRHFIN =Mo: 4p5s4d

   TITEL  = PAW_PBE Mo 08Apr2002
   POMASS =   95.940; ZVAL   =    6.000    mass and valenz
   ENMAX  =  224.584; ENMIN  =  168.438 eV

 POTCAR:    PAW_PBE S 06Sep2000
   VRHFIN =S : s2p4

   TITEL  = PAW_PBE S 06Sep2000
   POMASS =   32.066; ZVAL   =    6.000    mass and valenz
   ENMAX  =  258.689; ENMIN  =  194.016 eV

  PAW_PBE Mo 08Apr2002                  :
  PAW_PBE S 06Sep2000                   :

 POSCAR: PdTe2
  positions in direct lattice
 exchange correlation table for  LEXCH =        8
   RHO(1)=    0.500       N(1)  =     2000
   RHO(2)=  100.500       N(2)  =     4000

 ion  position               nearest neighbor table
   1  0.000  0.000  0.500-   2 2.43   3 2.43   2 2.43   3 2.43   2 2.43   3 2.43
   2  0.333  0.333  0.606-   1 2.43   1 2.43   1 2.43
   3  0.333  0.333  0.394-   1 2.43   1 2.43   1 2.43

  LATTYP: Found a hexagonal cell.
 ALAT       =     3.1716343032
 C/A-ratio  =     4.7294229302

  Lattice vectors:

 A1 = (   1.5858171516,  -2.7467158781,   0.0000000000)
 A2 = (  -3.1716343032,   0.0000000000,   0.0000000000)
 A3 = (   0.0000000000,   0.0000000000, -15.0000000000)

Analysis of symmetry for initial positions (statically):
 Subroutine PRICEL returns:
 Original cell was already a primitive cell.

 Routine SETGRP: Setting up the symmetry group for a
 hexagonal supercell.

 Subroutine GETGRP returns: Found 12 space group operations
 (whereof 12 operations were pure point group operations)
 out of a pool of 24 trial point group operations.

The static configuration has the point symmetry D_3h.

Analysis of symmetry for dynamics (positions and initial velocities):
 Subroutine PRICEL returns:
 Original cell was already a primitive cell.

[...]

The dynamic configuration has the point symmetry D_3h.

Analysis of constrained symmetry for selective dynamics:
 Subroutine PRICEL returns:
 Original cell was already a primitive cell.

[...]

The constrained configuration has the point symmetry D_3h.

Analysis of structural, dynamic, and magnetic symmetry:
 Subroutine PRICEL returns:
 Original cell was already a primitive cell.

 Routine SETGRP: Setting up the symmetry group for a
 hexagonal supercell.

 Subroutine GETGRP returns: Found 12 space group operations
 (whereof 12 operations were pure point group operations)
 out of a pool of 24 trial point group operations.

The (compounded) configuration has the point symmetry D_3h.

 Subroutine INISYM returns: Found 12 space group operations
 (whereof 12 operations are pure point group operations),
 and found     1 'primitive' translations

 KPOINTS: K-POINTS

Automatic generation of k-mesh.
Space group operators:
 irot       det(A)        alpha          n_x          n_y          n_z        tau_x        tau_y        tau_z
    1     1.000000     0.000000     1.000000     0.000000     0.000000     0.000000     0.000000     0.000000
    2    -1.000000    60.000000     0.000000    -0.000000     1.000000     0.000000     0.000000     0.000000
    3     1.000000   120.000000     0.000000    -0.000000     1.000000     0.000000     0.000000     0.000000
    4    -1.000000   180.000000     0.000000    -0.000000     1.000000     0.000000     0.000000     0.000000
    5     1.000000   120.000000     0.000000     0.000000    -1.000000     0.000000     0.000000     0.000000
    6    -1.000000    60.000000     0.000000     0.000000    -1.000000     0.000000     0.000000     0.000000
    7    -1.000000   180.000000     0.500000    -0.866025     0.000000     0.000000     0.000000     0.000000
    8     1.000000   180.000000     0.866025    -0.500000     0.000000     0.000000     0.000000     0.000000
    9    -1.000000   180.000000     1.000000     0.000000     0.000000     0.000000     0.000000     0.000000
   10     1.000000   180.000000     0.866025     0.500000     0.000000     0.000000     0.000000     0.000000
   11    -1.000000   180.000000    -0.500000    -0.866025     0.000000     0.000000     0.000000     0.000000
   12     1.000000   180.000000     0.000000     1.000000     0.000000     0.000000     0.000000     0.000000

 Subroutine IBZKPT returns following result:

 Found     26 irreducible k-points:

 Following reciprocal coordinates:
            Coordinates               Weight
  0.000000  0.000000  0.000000      1.000000
  0.090909  0.000000  0.000000      3.000000
  0.181818  0.000000  0.000000      3.000000
  0.272727  0.000000  0.000000      3.000000
  0.363636  0.000000  0.000000      3.000000
  0.454545  0.000000  0.000000      3.000000
 -0.454545  0.000000  0.000000      3.000000
 -0.363636  0.000000  0.000000      3.000000
 -0.272727  0.000000  0.000000      3.000000
 -0.181818  0.000000  0.000000      3.000000
 -0.090909  0.000000  0.000000      3.000000
  0.181818  0.090909  0.000000      6.000000
  0.272727  0.090909  0.000000      6.000000
  0.363636  0.090909  0.000000      6.000000
  0.454545  0.090909  0.000000      6.000000
 -0.454545  0.090909  0.000000      6.000000
 -0.363636  0.090909  0.000000      6.000000
 -0.272727  0.090909  0.000000      6.000000
 -0.181818  0.090909  0.000000      6.000000
  0.363636  0.181818  0.000000      6.000000
  0.454545  0.181818  0.000000      6.000000
 -0.454545  0.181818  0.000000      6.000000
 -0.363636  0.181818  0.000000      6.000000
 -0.272727  0.181818  0.000000      6.000000
 -0.454545  0.272727  0.000000      6.000000
 -0.363636  0.272727  0.000000      6.000000

 Following cartesian coordinates:
            Coordinates               Weight
  0.000000  0.000000  0.000000      1.000000
  0.028663 -0.016549  0.000000      3.000000
  0.057326 -0.033097  0.000000      3.000000
  0.085990 -0.049646  0.000000      3.000000
  0.114653 -0.066195  0.000000      3.000000
  0.143316 -0.082743  0.000000      3.000000
 -0.143316  0.082743  0.000000      3.000000
 -0.114653  0.066195  0.000000      3.000000
 -0.085990  0.049646  0.000000      3.000000
 -0.057326  0.033097  0.000000      3.000000
 -0.028663  0.016549  0.000000      3.000000
  0.057326  0.000000  0.000000      6.000000
  0.085990 -0.016549  0.000000      6.000000
  0.114653 -0.033097  0.000000      6.000000
  0.143316 -0.049646  0.000000      6.000000
 -0.143316  0.115841  0.000000      6.000000
 -0.114653  0.099292  0.000000      6.000000
 -0.085990  0.082743  0.000000      6.000000
 -0.057326  0.066195  0.000000      6.000000
  0.114653  0.000000  0.000000      6.000000
  0.143316 -0.016549  0.000000      6.000000
 -0.143316  0.148938  0.000000      6.000000
 -0.114653  0.132390  0.000000      6.000000
 -0.085990  0.115841  0.000000      6.000000
 -0.143316  0.182036  0.000000      6.000000
 -0.114653  0.165487  0.000000      6.000000

 SYSTEM =  PdTe2 Hyun-Jung Kim.
 POSCAR =  PdTe2

 Startparameter for this run:
   NWRITE =      2    write-flag & timer
   PREC   = n         normal or accurate (medium, high low for compatibility)
   ISTART =      0    job   : 0-new  1-cont  2-samecut
   ICHARG =      2    charge: 1-file 2-atom 10-const
   ISPIN  =      1    spin polarized calculation?
   LNONCOLLINEAR =      T non collinear calculations
   LSORBIT =      T    spin-orbit coupling
   INIWAV =      1    electr: 0-lowe 1-rand  2-diag
   LASPH  =      F    aspherical Exc in radial PAW
   METAGGA=      F    non-selfconsistent MetaGGA calc.

 Electronic Relaxation 1
   ENCUT  =  400.0 eV  29.40 Ry    5.42 a.u.   5.17  5.17 24.46*2*pi/ulx,y,z
   ENINI  =  400.0     initial cutoff
   ENAUG  =  345.3 eV  augmentation charge cutoff
   NELM   =    200;   NELMIN=  2; NELMDL= -5     # of ELM steps
   EDIFF  = 0.1E-05   stopping-criterion for ELM
   LREAL  =      F    real-space projection
   NLSPLINE    = F    spline interpolate recip. space projectors
   LCOMPAT=      F    compatible to vasp.4.4
   GGA_COMPAT  = F    GGA compatible to vasp.4.4-vasp.4.6
   LMAXPAW     = -100 max onsite density
   LMAXMIX     =    2 max onsite mixed and CHGCAR
   VOSKOWN=      0    Vosko Wilk Nusair interpolation
   ROPT   =    0.00000   0.00000
 Ionic relaxation
   EDIFFG = 0.1E-04   stopping-criterion for IOM
   NSW    =      0    number of steps for IOM
   NBLOCK =      1;   KBLOCK =      1    inner block; outer block
   IBRION =     -1    ionic relax: 0-MD 1-quasi-New 2-CG
   NFREE  =      0    steps in history (QN), initial steepest desc. (CG)
   ISIF   =      2    stress and relaxation
   ICSO   =      0    constrained structural opt. 1: x, 2: y, 3: z, 4: xy, 5: xyz
   IWAVPR =     10    prediction:  0-non 1-charg 2-wave 3-comb
   ISYM   =      2    0-nonsym 1-usesym 2-fastsym
   LCORR  =      T    Harris-Foulkes like correction to forces

   POTIM  = 0.5000    time-step for ionic-motion
   TEIN   =    0.0    initial temperature
   TEBEG  =    0.0;   TEEND  =   0.0 temperature during run
   SMASS  =  -3.00    Nose mass-parameter (am)
   estimated Nose-frequenzy (Omega)   =  0.10E-29 period in steps =****** mass=  -0.230E-27a.u.
   SCALEE = 1.0000    scale energy and forces
   NPACO  =    256;   APACO  = 16.0  distance and # of slots for P.C.
   PSTRESS=    0.0 pullay stress

  Mass of Ions in am
   POMASS =  95.94 32.07
  Ionic Valenz
   ZVAL   =   6.00  6.00
  Atomic Wigner-Seitz radii
  virtual crystal weights
   VCA    =   1.00  1.00
   NELECT =      18.0000    total number of electrons
   NUPDOWN=      -1.0000    fix difference up-down

 DOS related values:
   EMIN   =  10.00;   EMAX   =-10.00  energy-range for DOS
   EFERMI =   0.00
   ISMEAR =     0;   SIGMA  =   0.02  broadening in eV -4-tet -1-fermi 0-gaus

 Electronic relaxation 2 (details)
   IALGO  =     38    algorithm
   LDIAG  =      T    sub-space diagonalisation (order eigenvalues)
   LSUBROT=      F    optimize rotation matrix (better conditioning)
   TURBO    =      0    0=normal 1=particle mesh
   IRESTART =      0    0=no restart 2=restart with 2 vectors
   NREBOOT  =      0    no. of reboots
   NMIN     =      0    reboot dimension
   EREF     =   0.00    reference energy to select bands
   IMIX   =      4    mixing-type and parameters
     AMIX     =   0.40;   BMIX     =  1.00
     AMIX_MAG =   1.60;   BMIX_MAG =  1.00
     AMIN     =   0.10
     WC   =   100.;   INIMIX=   1;  MIXPRE=   1;  MAXMIX= -45

 Intra band minimization:
   WEIMIN = 0.0000     energy-eigenvalue tresh-hold
   EBREAK =  0.78E-08  absolut break condition
   DEPER  =   0.30     relativ break condition

   TIME   =   0.40     timestep for ELM

  volume/ion in A,a.u.               =      43.56       293.94
  Fermi-wavevector in a.u.,A,eV,Ry     =   0.845479  1.597724  9.725923  0.714835
  Thomas-Fermi vector in A             =   1.960674

 Write flags
   LWAVE        =      F    write WAVECAR
   LDOWNSAMPLE  =      F    k-point downsampling of WAVECAR
   LCHARG       =      T    write CHGCAR
   LVTOT        =      F    write LOCPOT, total local potential
   LVHAR        =      F    write LOCPOT, Hartree potential only
   LELF         =      F    write electronic localiz. function (ELF)
[...]
   0.11465268  0.00000000  0.00000000       0.050
   0.14331585 -0.01654869  0.00000000       0.050
  -0.14331585  0.14893820  0.00000000       0.050
  -0.11465268  0.13238951  0.00000000       0.050
  -0.08598951  0.11584082  0.00000000       0.050
  -0.14331585  0.18203557  0.00000000       0.050
  -0.11465268  0.16548688  0.00000000       0.050

 k-points in reciprocal lattice and weights: K-POINTS
   0.00000000  0.00000000  0.00000000       0.008
   0.09090909  0.00000000  0.00000000       0.025
   0.18181818  0.00000000  0.00000000       0.025
   0.27272727  0.00000000  0.00000000       0.025
   0.36363636  0.00000000  0.00000000       0.025
   0.45454545  0.00000000  0.00000000       0.025
  -0.45454545  0.00000000  0.00000000       0.025
  -0.36363636  0.00000000  0.00000000       0.025
  -0.27272727  0.00000000  0.00000000       0.025
  -0.18181818  0.00000000  0.00000000       0.025
  -0.09090909  0.00000000  0.00000000       0.025
   0.18181818  0.09090909  0.00000000       0.050
   0.27272727  0.09090909  0.00000000       0.050
   0.36363636  0.09090909  0.00000000       0.050
   0.45454545  0.09090909  0.00000000       0.050
  -0.45454545  0.09090909  0.00000000       0.050
  -0.36363636  0.09090909  0.00000000       0.050
  -0.27272727  0.09090909  0.00000000       0.050
  -0.18181818  0.09090909  0.00000000       0.050
   0.36363636  0.18181818  0.00000000       0.050
   0.45454545  0.18181818  0.00000000       0.050
  -0.45454545  0.18181818  0.00000000       0.050
  -0.36363636  0.18181818  0.00000000       0.050
  -0.27272727  0.18181818  0.00000000       0.050
  -0.45454545  0.27272727  0.00000000       0.050
  -0.36363636  0.27272727  0.00000000       0.050

 position of ions in fractional coordinates (direct lattice)
   0.00000000  0.00000000  0.50000000
   0.33333333  0.33333333  0.60645737
   0.33333333  0.33333333  0.39354263

 position of ions in cartesian coordinates  (Angst):
   0.00000000  0.00000000  7.50000000
   1.58581715  0.91557196  9.09686056
   1.58581715  0.91557196  5.90313944

 Euler angles ALPHA=     0.0000000  BETA=     0.0000000

 transformation matrix from SAXIS to cartesian coordinates
     1.0000000 m_x     0.0000000 m_y     0.0000000 m_z
     0.0000000 m_x     1.0000000 m_y     0.0000000 m_z
     0.0000000 m_x     0.0000000 m_y     1.0000000 m_z

 transformation matrix from cartesian coordinates to SAXIS
     1.0000000 m_x     0.0000000 m_y     0.0000000 m_z
     0.0000000 m_x     1.0000000 m_y     0.0000000 m_z
     0.0000000 m_x     0.0000000 m_y     1.0000000 m_z

 k-point  1 :   0.0000 0.0000 0.0000  plane waves:    4706
 k-point  2 :   0.0909 0.0000 0.0000  plane waves:    4706
 k-point  3 :   0.1818 0.0000 0.0000  plane waves:    4722
 k-point  4 :   0.2727 0.0000 0.0000  plane waves:    4734
 k-point  5 :   0.3636 0.0000 0.0000  plane waves:    4778
 k-point  6 :   0.4545 0.0000 0.0000  plane waves:    4782
 k-point  7 :  -0.4545 0.0000 0.0000  plane waves:    4782
 k-point  8 :  -0.3636 0.0000 0.0000  plane waves:    4778
 k-point  9 :  -0.2727 0.0000 0.0000  plane waves:    4734
 k-point 10 :  -0.1818 0.0000 0.0000  plane waves:    4722
 k-point 11 :  -0.0909 0.0000 0.0000  plane waves:    4706
 k-point 12 :   0.1818 0.0909 0.0000  plane waves:    4702
 k-point 13 :   0.2727 0.0909 0.0000  plane waves:    4726
 k-point 14 :   0.3636 0.0909 0.0000  plane waves:    4762
 k-point 15 :   0.4545 0.0909 0.0000  plane waves:    4770
 k-point 16 :  -0.4545 0.0909 0.0000  plane waves:    4772
 k-point 17 :  -0.3636 0.0909 0.0000  plane waves:    4770
 k-point 18 :  -0.2727 0.0909 0.0000  plane waves:    4762
 k-point 19 :  -0.1818 0.0909 0.0000  plane waves:    4726
 k-point 20 :   0.3636 0.1818 0.0000  plane waves:    4734
 k-point 21 :   0.4545 0.1818 0.0000  plane waves:    4742
 k-point 22 :  -0.4545 0.1818 0.0000  plane waves:    4760
 k-point 23 :  -0.3636 0.1818 0.0000  plane waves:    4760
 k-point 24 :  -0.2727 0.1818 0.0000  plane waves:    4742
 k-point 25 :  -0.4545 0.2727 0.0000  plane waves:    4730
 k-point 26 :  -0.3636 0.2727 0.0000  plane waves:    4742

 maximum and minimum number of plane-waves per node :      4782     4702

 maximum number of plane-waves:      4782
 maximum index in each direction:
   IXMAX=    5   IYMAX=    5   IZMAX=   24
   IXMIN=   -5   IYMIN=   -5   IZMIN=  -24

 serial   3D FFT for wavefunctions
 parallel 3D FFT for charge:
    minimum data exchange during FFTs selected (reduces bandwidth)

 Broyden mixing: mesh for mixing (old mesh)
   NGX = 11   NGY = 11   NGZ = 49
  (NGX  = 32   NGY  = 32   NGZ  =160)
  gives a total of   5929 points

 initial charge density was supplied:
 charge density of overlapping atoms calculated
 number of electron      18.0000000 magnetization       0.0000000      0.0000000      0.0000000
 keeping initial charge density in first step

 Maximum index for augmentation-charges          519 (set IRDMAX)

 First call to EWALD:  gamma=   0.349
 Maximum number of real-space cells 5x 5x 1
 Maximum number of reciprocal cells 2x 2x 7

--------------------------------------- Iteration      1(   1)  ---------------------------------------

 eigenvalue-minimisations  :  1664
 total energy-change (2. order) : 0.8219353E+02  (-0.6571947E+03)
 number of electron      18.0000000 magnetization       0.0000000      0.0000000      0.0000000
 augmentation part       18.0000000 magnetization       0.0000000      0.0000000      0.0000000

 Free energy of the ion-electron system (eV)
  alpha Z        PSCENC =        22.68957348
  Ewald energy   TEWEN  =      1143.31362263
  -Hartree energ DENC   =     -1875.10823464
  -exchange      EXHF   =         0.00000000
  -V(xc)+E(xc)   XCENC  =       -36.34289500
  PAW double counting   =       700.55132204     -623.00449334
  entropy T*S    EENTRO =        -0.00076727
  eigenvalues    EBANDS =       -21.05654495
  atomic energy  EATOM  =       771.15194512
  Solvation  Ediel_sol  =         0.00000000
  free energy    TOTEN  =        82.19352806 eV

  energy without entropy =       82.19429533  energy(sigma->0) =       82.19391169

[...]

 eigenvalue-minimisations  :  2816
 total energy-change (2. order) :-0.1024547E+03  (-0.1006454E+03)
 number of electron      18.0000000 magnetization       0.0000000      0.0000000      0.0000000
 augmentation part       18.0000000 magnetization       0.0000000      0.0000000      0.0000000

[...]

 Broyden mixing:
  rms(total) = 0.23800E+01    rms(broyden)= 0.23800E+01
  rms(prec ) = 0.24351E+01
  weight for this iteration     100.00

[...]

 eigenvalues of (default mixing * dielectric matrix)
  average eigenvalue GAMMA=   1.1685
  1.1685

[...]

 eigenvalue-minimisations  :  2304
 total energy-change (2. order) : 0.6114923E-05  (-0.4282131E-05)
 number of electron      18.0000011 magnetization       0.0000000     -0.0000000      0.0000000
 augmentation part       -0.5513581 magnetization       0.0000000     -0.0000000      0.0000000

[...]

 Broyden mixing:
  rms(total) = 0.32014E-04    rms(broyden)= 0.32014E-04
  rms(prec ) = 0.32371E-04
  weight for this iteration     100.00

 eigenvalues of (default mixing * dielectric matrix)
  average eigenvalue GAMMA=   2.0782
  8.6206  4.7026  3.0741  2.3693  2.3693  2.0655  1.4868  1.1269  0.9620  0.9235
  0.9235  0.5898  0.6247  0.6247  0.7095

[...]

--------------------------------------- Iteration      1(  21)  ---------------------------------------

 eigenvalue-minimisations  :  2528
 total energy-change (2. order) :-0.1745377E-06  (-0.4685847E-09)
 number of electron      18.0000011 magnetization       0.0000000     -0.0000000     -0.0000000
 augmentation part       -0.5511962 magnetization       0.0000000     -0.0000000     -0.0000000

 Free energy of the ion-electron system (eV)
  alpha Z        PSCENC =        22.68957348
  Ewald energy   TEWEN  =      1143.31362263
  -Hartree energ DENC   =     -1885.55130221
  -exchange      EXHF   =         0.00000000
  -V(xc)+E(xc)   XCENC  =       -35.25816138
  PAW double counting   =      1564.20400072    -1488.35158130
  entropy T*S    EENTRO =        -0.00000000
  eigenvalues    EBANDS =      -113.99208687
  atomic energy  EATOM  =       771.15194512
  Solvation  Ediel_sol  =         0.00000000
  free energy    TOTEN  =       -21.79398982 eV

  energy without entropy =      -21.79398982  energy(sigma->0) =      -21.79398982

 average (electrostatic) potential at core
  the test charge radii are     1.2296  0.9698
  (the norm of the test charge is              1.0000)
       1 -44.8148       2 -92.6531       3 -92.6531

 E-fermi :  -1.2531     XC(G=0):  -5.0965     alpha+bet : -4.8360

 k-point     1 :       0.0000    0.0000    0.0000
  band No.  band energies     occupation
      1     -15.3732      1.00000
      2     -15.3732      1.00000
      3     -14.2571      1.00000
      4     -14.2571      1.00000
      5      -6.9015      1.00000
      6      -6.9015      1.00000
      7      -3.8214      1.00000
      8      -3.8214      1.00000
      9      -3.7515      1.00000
     10      -3.7515      1.00000
     11      -3.2335      1.00000
     12      -3.2335      1.00000
     13      -2.7502      1.00000
     14      -2.7502      1.00000
     15      -2.6636      1.00000
     16      -2.6636      1.00000
     17      -1.5301      1.00000
     18      -1.5301      1.00000
     19       1.3736      0.00000
     20       1.3736      0.00000
     21       1.4486      0.00000
     22       1.4486      0.00000
     23       1.5713      0.00000
     24       1.5713      0.00000
     25       1.5784      0.00000
     26       1.5784      0.00000
     27       3.8928      0.00000
     28       3.8928      0.00000
     29       4.4407      0.00000
     30       4.4407      0.00000
     31       5.1297      0.00000
     32       5.1297      0.00000

[...]

 k-point    26 :      -0.3636    0.2727    0.0000
  band No.  band energies     occupation
      1     -13.3064      1.00000
      2     -13.2762      1.00000
      3     -13.1893      1.00000
      4     -13.1860      1.00000
      5      -6.6178      1.00000
      6      -6.6105      1.00000
      7      -6.1476      1.00000
      8      -6.1183      1.00000
      9      -5.2361      1.00000
     10      -5.2190      1.00000
     11      -4.7253      1.00000
     12      -4.7115      1.00000
     13      -4.3619      1.00000
     14      -4.3205      1.00000
     15      -3.5345      1.00000
     16      -3.5201      1.00000
     17      -1.4871      1.00000
     18      -1.3491      1.00000
     19       0.4920      0.00000
     20       0.5005      0.00000
     21       1.5492      0.00000
     22       1.5759      0.00000
     23       1.9125      0.00000
     24       2.0532      0.00000
     25       3.3224      0.00000
     26       3.3993      0.00000
     27       5.6328      0.00000
     28       5.6939      0.00000
     29       6.5640      0.00000
     30       6.6235      0.00000
     31       8.1561      0.00000
     32       8.1636      0.00000

 soft charge-density along one line, spin component           1
         0         1         2         3         4         5         6         7         8         9
 total charge-density along one line

[...]

 soft charge-density along one line, spin component           4
         0         1         2         3         4         5         6         7         8         9
 total charge-density along one line

------------------------ aborting loop because EDIFF is reached ----------------------------------------

  FORCE on cell =-STRESS in cart. coord.  units (eV):
  Direction    XX          YY          ZZ          XY          YZ          ZX
  Alpha Z    22.68957    22.68957    22.68957
  Ewald    1710.32592  1710.32592 -2277.33784    -0.00000     0.00000     0.00000
  Hartree  1848.08148  1848.08148 -1810.61223    -0.00000    -0.00000    -0.00000
  E(xc)     -70.18255   -70.18255   -70.75264     0.00000     0.00000    -0.00000
  Local   -3849.43375 -3849.43388  3791.71070     0.00011    -0.00000    -0.00000
  n-local   125.98902   126.30127   131.40322    -0.02294    -0.00000     0.00000
  augment   -25.60104   -25.60090   -26.64306    -0.00012     0.00000     0.00000
  Kinetic   233.58274   241.81678   237.80702     5.83732     0.00000     0.00000
  Fock        0.00000     0.00000     0.00000     0.00000     0.00000     0.00000
  Total      -0.27544    -0.27544    -1.73526     0.00000    -0.00000     0.00000
  in kB      -3.37715    -3.37715   -21.27584     0.00000    -0.00000     0.00000

 VOLUME and BASIS-vectors are now :
  energy-cutoff  :      400.00
  volume of cell :      130.67
      direct lattice vectors                 reciprocal lattice vectors
     3.171634303  0.000000000  0.000000000     0.315294862 -0.182035573  0.000000000
     1.585817152  2.746715878  0.000000000     0.000000000  0.364071147  0.000000000
     0.000000000  0.000000000 15.000000000     0.000000000 -0.000000000  0.066666667

  length of vectors
     3.171634303  3.171634303 15.000000000     0.364071147  0.364071147  0.066666667

 FORCES acting on ions
    electron-ion (+dipol)            ewald-force                    non-local-force                 convergence-correction
   -.438E-07 -.253E-07 0.572E-13   0.241E-11 0.154E-11 0.000E+00   -.347E-17 0.208E-16 0.000E+00   0.296E-10 0.171E-10 0.322E-13
   0.125E-05 0.723E-06 -.480E+03   -.120E-11 -.781E-12 0.485E+03   -.173E-16 -.347E-17 -.502E+01   -.348E-10 -.201E-10 -.118E-03
   0.125E-05 0.724E-06 0.480E+03   -.120E-11 -.759E-12 -.485E+03   -.347E-16 0.347E-17 0.502E+01   -.348E-10 -.201E-10 0.118E-03
   0.246E-05 0.142E-05 0.821E-12   0.105E-13 -.293E-14 0.000E+00   -.555E-16 0.208E-16 0.000E+00   -.401E-10 -.231E-10 0.560E-13

 POSITION                                       TOTAL-FORCE (eV/Angst)
      0.00000      0.00000      7.50000        -0.000000      0.000000      0.000000
      1.58582      0.91557      9.09686         0.000000      0.000000     -0.535783
      1.58582      0.91557      5.90314         0.000000      0.000000      0.535783
    total drift:                                0.000002      0.000001      0.000000

  FREE ENERGIE OF THE ION-ELECTRON SYSTEM (eV)
  free  energy   TOTEN  =       -21.79398982 eV

  energy  without entropy=      -21.79398982  energy(sigma->0) =      -21.79398982

 Spin-Orbit-Coupling matrix elements

 Ion:    1  E_soc:     -0.0272774
 l=   1
     0.0000000    -0.0020398    -0.0018489
    -0.0020398     0.0000000    -0.0020398
    -0.0018489    -0.0020398     0.0000000
 l=   2
     0.0000000    -0.0004860     0.0000000    -0.0004860    -0.0022270
    -0.0004860     0.0000000    -0.0015645    -0.0004102    -0.0004860
     0.0000000    -0.0015645     0.0000000    -0.0015645     0.0000000
    -0.0004860    -0.0004102    -0.0015645     0.0000000    -0.0004860
    -0.0022270    -0.0004860     0.0000000    -0.0004860     0.0000000
 l=   3
     0.0000000     0.0000000     0.0000000     0.0000000     0.0000000     0.0000000     0.0000000
     0.0000000     0.0000000     0.0000000     0.0000000     0.0000000     0.0000000     0.0000000
     0.0000000     0.0000000     0.0000000     0.0000000     0.0000000     0.0000000     0.0000000
     0.0000000     0.0000000     0.0000000     0.0000000     0.0000000     0.0000000     0.0000000
     0.0000000     0.0000000     0.0000000     0.0000000     0.0000000     0.0000000     0.0000000
     0.0000000     0.0000000     0.0000000     0.0000000     0.0000000     0.0000000     0.0000000
     0.0000000     0.0000000     0.0000000     0.0000000     0.0000000     0.0000000     0.0000000

[...]

 Ion:    3  E_soc:     -0.0022634
 l=   1
     0.0000000    -0.0003608    -0.0004101
    -0.0003608     0.0000000    -0.0003608
    -0.0004101    -0.0003608     0.0000000
 l=   2
     0.0000000     0.0000000     0.0000000     0.0000000     0.0000000
     0.0000000     0.0000000     0.0000000     0.0000000     0.0000000
     0.0000000     0.0000000     0.0000000     0.0000000     0.0000000
     0.0000000     0.0000000     0.0000000     0.0000000     0.0000000
     0.0000000     0.0000000     0.0000000     0.0000000     0.0000000
 l=   3
     0.0000000     0.0000000     0.0000000     0.0000000     0.0000000     0.0000000     0.0000000
     0.0000000     0.0000000     0.0000000     0.0000000     0.0000000     0.0000000     0.0000000
     0.0000000     0.0000000     0.0000000     0.0000000     0.0000000     0.0000000     0.0000000
     0.0000000     0.0000000     0.0000000     0.0000000     0.0000000     0.0000000     0.0000000
     0.0000000     0.0000000     0.0000000     0.0000000     0.0000000     0.0000000     0.0000000
     0.0000000     0.0000000     0.0000000     0.0000000     0.0000000     0.0000000     0.0000000
     0.0000000     0.0000000     0.0000000     0.0000000     0.0000000     0.0000000     0.0000000